# vtk DataFile Version 2.0
FEM Unstructured Grid Example
ASCII
DATASET UNSTRUCTURED_GRID
POINTS 80 float
0	0	0
0.250000000000000	0	0
2.05000000000000	0	0
2.30000000000000	0	0
-0.240466685877273	4.16486898073869e-05	1.44417483243609
0.00898750342315566	-8.35018033613564e-05	1.20539817182007
0.00974848655389829	2.57474047737819e-05	1.45517697798593
1.81093227367149	3.05402299846444e-05	1.19240105215706
1.80394455677780	-0.000421697190672123	1.44311668664272
2.03582712965872	-0.00101643329533274	1.46006223884545
0.00898750342315460	0.250083501803350	1.20539817182007
1.81093227367149	0.249969459770026	1.19240105215706
1.80394455677780	0.250421697190687	1.44311668664272
0.00974848655389646	0.249974252595212	1.45517697798594
-0.240466685877275	0.249958351310175	1.44417483243609
0	0.250000000000000	0
0.250000000000000	0.250000000000000	0
2.03582712965872	0.251016433295352	1.46006223884545
2.30000000000000	0.250000000000000	0
2.05000000000000	0.250000000000000	0
0.203339121962396	0.000212079875207406	0.242662524696489
0.151997967769770	9.72404132960806e-05	0.484569257741618
0.0978976582839041	4.62507113369651e-05	0.725626004341101
0.0410315306474064	-3.79424256293332e-06	0.965885516539304
-0.240913229357760	-9.74899985963750e-07	1.20224938634073
-0.210557641632327	1.57571984211114e-05	0.960144662804604
-0.153275757600267	-6.47235421393841e-05	0.718885510733794
-0.0987439915381685	-0.000109915889685980	0.478436052968526
-0.0470161862068565	-0.000228176327595804	0.238839759823745
2.00680583863388	-0.000261938934896352	0.236751796090352
1.95784703391363	-0.000130493403109090	0.474313180796552
1.90517844783266	-7.87691229086369e-05	0.712806481626191
1.85002422348029	-1.46996983137537e-05	0.952146116772097
2.06006512791166	-0.000100201910051222	1.21666515558312
2.09854688581502	2.88332405668148e-05	0.975158283908626
2.15401941762702	9.20113387490706e-05	0.732686271363346
2.20713360549922	0.000144015020878519	0.489351403658913
2.25647149738674	0.000277857428120834	0.245081222269161
0.264880121341382	-7.92750941671317e-05	1.20302390424731
0.521171012011376	-4.24424290085506e-05	1.19917235015875
0.778016887035329	-6.42066691983730e-06	1.19465287617925
1.03540060888974	2.95438010022454e-05	1.19062431046801
1.29332461368313	6.33712942300490e-05	1.18817548052226
1.55176827257406	0.000111873186218156	1.18845758597407
1.54963460065466	-0.000116569739086233	1.43841951998108
1.29428606934179	-0.000111586333377496	1.43823728435639
1.03845694622363	-7.14515880102798e-05	1.44066240856611
0.782080130906497	-3.59904228338944e-05	1.44469820774319
0.525163189640403	-1.33782945731239e-06	1.44920567724130
0.267711924139134	4.11145590577731e-05	1.45311444152625
0.264880121341380	0.250079275094158	1.20302390424731
0.521171012011375	0.250042442429002	1.19917235015875
0.778016887035328	0.250006420666916	1.19465287617925
1.03540060888973	0.249970456198997	1.19062431046800
1.29332461368313	0.249936628705772	1.18817548052226
1.55176827257406	0.249888126813788	1.18845758597407
1.54963460065465	0.250116569739097	1.43841951998108
1.29428606934178	0.250111586333383	1.43823728435639
1.03845694622363	0.250071451588012	1.44066240856611
0.782080130906495	0.250035990422831	1.44469820774319
0.525163189640401	0.250001337829451	1.44920567724130
0.267711924139133	0.249958885440932	1.45311444152625
-0.240913229357761	0.250000974899972	1.20224938634073
-0.210557641632327	0.249984242801570	0.960144662804606
-0.153275757600266	0.250064723542134	0.718885510733796
-0.0987439915381675	0.250109915889684	0.478436052968527
-0.0470161862068559	0.250228176327595	0.238839759823745
0.203339121962396	0.249787920124791	0.242662524696490
0.151997967769771	0.249902759586700	0.484569257741619
0.0978976582839048	0.249953749288657	0.725626004341102
0.0410315306474063	0.250003794242554	0.965885516539305
2.06006512791166	0.250100201910067	1.21666515558312
2.09854688581501	0.249971166759447	0.975158283908625
2.15401941762702	0.249907988661262	0.732686271363344
2.20713360549922	0.249855984979128	0.489351403658911
2.25647149738674	0.249722142571881	0.245081222269160
2.00680583863388	0.250261938934896	0.236751796090353
1.95784703391363	0.250130493403108	0.474313180796552
1.90517844783266	0.250078769122909	0.712806481626189
1.85002422348028	0.250014699698319	0.952146116772094

CELLS 19 171
8	38	5	6	49	50	10	13	61
8	39	38	49	48	51	50	61	60
8	40	39	48	47	52	51	60	59
8	41	40	47	46	53	52	59	58
8	42	41	46	45	54	53	58	57
8	43	42	45	44	55	54	57	56
8	7	43	44	8	11	55	56	12
8	4	6	5	24	14	13	10	62
8	24	5	23	25	62	10	70	63
8	25	23	22	26	63	70	69	64
8	26	22	21	27	64	69	68	65
8	27	21	20	28	65	68	67	66
8	28	20	1	0	66	67	16	15
8	8	9	33	7	12	17	71	11
8	7	33	34	32	11	71	72	79
8	32	34	35	31	79	72	73	78
8	31	35	36	30	78	73	74	77
8	30	36	37	29	77	74	75	76
8	29	37	3	2	76	75	18	19

CELL_TYPES 19
12
12
12
12
12
12
12
12
12
12
12
12
12
12
12
12
12
12
12

CELL_DATA 19
SCALARS Stress_X-direction float 1
LOOKUP_TABLE CellColors
9658901.19696081
10832563.4215217
10639868.6102644
10661522.3186915
10731229.9578756
10351525.3752816
12765862.6787688
-4671256.47029729
10070090.8887837
99710.1815296241
-1487333.01089743
-1152547.72415542
-1302962.61470960
19526679.6417547
-2753471.43274174
-1760923.87186193
1728630.58831388
1154198.39331531
1423215.64057240